p tw 28 42
1 11
1 17
1 18
2 8
2 17
2 19
3 9
3 17
3 26
4 5
4 13
4 28
5 12
5 14
6 10
6 11
6 24
7 11
7 19
7 24
8 10
8 22
9 14
9 20
10 23
12 15
12 20
13 23
13 24
14 25
15 27
15 28
16 18
16 21
16 26
18 25
19 23
20 27
21 22
21 26
22 25
27 28
